NAME : kleinezf\2a3a4a.knd
COMMENT : 
TYPE : CVRP
DIMENSION : 201
EDGE_WEIGHT_TYPE : EUC_2D
CAPACITY : 13600
CAPACITY_VOL : 55
NODE_COORD_TYPE : TWOD_COORDS
NODE_COORD_SECTION
1 23452 56766
2 24981 56524
3 24271 58058
4 23544 58301
5 24967 56927
6 24941 56364
7 24962 56723
8 24125 55422
9 24739 56032
10 24614 55814
11 24159 55481
12 23292 55300
13 24790 56103
14 24927 56736
15 23034 55333
16 23614 55305
17 24882 56364
18 23881 55358
19 24433 57870
20 24752 56085
21 22973 55380
22 23174 55328
23 23803 55351
24 24436 55696
25 23922 55396
26 24237 57959
27 23977 55417
28 24595 55938
29 24595 55938
30 24498 57703
31 24858 56682
32 24853 56635
33 23956 55440
34 24455 57735
35 24724 56147
36 23226 55381
37 24792 56341
38 23015 55443
39 24825 56500
40 24802 56449
41 23315 55396
42 23403 55391
43 23984 55481
44 24665 56133
45 23984 55481
46 24665 56133
47 23888 55469
48 23121 55428
49 24157 55613
50 23688 58110
51 24018 55518
52 24018 55518
53 23019 55479
54 23052 55470
55 23756 55448
56 23756 55448
57 24564 56045
58 23104 55455
59 23152 55455
60 24324 55768
61 23191 55456
62 23519 55444
63 24223 57817
64 24223 57817
65 24223 57817
66 23187 55483
67 24264 55740
68 24264 55740
69 24138 55672
70 23776 55495
71 24271 55768
72 24255 55782
73 23683 55503
74 24206 55748
75 24249 55766
76 24017 55639
77 24017 55639
78 24110 55702
79 23777 57999
80 23256 55535
81 24086 55715
82 23132 55546
83 24438 56044
84 23951 55622
85 24618 56366
86 23809 57942
87 24376 55966
88 23410 55543
89 23655 55558
90 23410 55543
91 23169 55580
92 24336 55947
93 23373 55579
94 24308 55947
95 24591 57078
96 24172 55845
97 23891 55671
98 24324 55986
99 24308 57558
100 24214 55883
101 24214 55883
102 24214 55883
103 24308 57558
104 24296 55985
105 24582 56897
106 23341 55625
107 23824 55686
108 23824 55686
109 23578 55669
110 24195 55945
111 23463 55651
112 24285 56038
113 24363 56159
114 24347 56131
115 24335 56104
116 23765 55701
117 24322 56088
118 23652 57853
119 23909 55765
120 24210 57532
121 23555 55702
122 24339 57337
123 23190 55723
124 23190 55723
125 23488 55708
126 24188 56012
127 24500 56665
128 24176 56010
129 24279 56122
130 24212 56071
131 24187 56055
132 23555 55757
133 23703 57754
134 24274 56207
135 24249 56168
136 23835 55833
137 23574 55779
138 23166 55811
139 24090 56037
140 24418 56792
141 23629 55809
142 23706 55837
143 23301 55814
144 24213 56195
145 24314 56359
146 24229 56252
147 24229 56252
148 24229 56252
149 24348 56469
150 24163 56158
151 24040 56043
152 23590 55853
153 24122 57390
154 23778 55905
155 23519 55875
156 23519 55875
157 24110 56161
158 23946 56063
159 24103 56191
160 24061 56170
161 23879 57469
162 23630 57572
163 24214 57048
164 24028 56194
165 24078 56272
166 23963 56182
167 23609 56050
168 23359 57454
169 23716 56117
170 23359 57454
171 24139 56790
172 23908 56247
173 23819 57327
174 23896 57260
175 23639 56152
176 23789 56258
177 23366 56174
178 23988 57020
179 23649 56212
180 24014 56652
181 23581 56249
182 23922 56914
183 23025 56547
184 23772 57075
185 23405 57136
186 23122 56617
187 23201 56507
188 23777 56905
189 23777 56905
190 23510 57108
191 23148 56902
192 23681 56546
193 23596 56977
194 23241 56806
195 23631 56700
196 23289 56817
197 23289 56817
198 23609 56729
199 23503 56845
200 23503 56845
201 23381 56740
DEMAND_SECTION
1 0 0
2 4570 0
3 4060 0
4 2580 0
5 3380 0
6 2260 0
7 4960 0
8 3390 0
9 4230 0
10 2070 0
11 1550 0
12 3060 0
13 4380 0
14 3920 0
15 2790 0
16 4350 0
17 2860 0
18 2400 0
19 1770 0
20 4860 0
21 1640 0
22 3680 0
23 1750 0
24 1320 0
25 2920 0
26 1290 0
27 1350 0
28 2910 0
29 3470 0
30 1700 0
31 1260 0
32 1780 0
33 3100 0
34 3300 0
35 3750 0
36 2110 0
37 3970 0
38 1440 0
39 4100 0
40 2870 0
41 1420 0
42 4040 0
43 4150 0
44 2250 0
45 4380 0
46 1900 0
47 4900 0
48 4830 0
49 3010 0
50 3250 0
51 4130 0
52 1810 0
53 3330 0
54 4030 0
55 4540 0
56 2240 0
57 4140 0
58 1570 0
59 4850 0
60 2160 0
61 2130 0
62 4760 0
63 1310 0
64 1260 0
65 2990 0
66 4140 0
67 3180 0
68 2230 0
69 3150 0
70 3490 0
71 3880 0
72 1810 0
73 3600 0
74 3650 0
75 2180 0
76 3140 0
77 3790 0
78 3180 0
79 4660 0
80 3190 0
81 1880 0
82 1190 0
83 1460 0
84 3230 0
85 1920 0
86 4000 0
87 2070 0
88 2970 0
89 2540 0
90 3150 0
91 1360 0
92 1500 0
93 3960 0
94 3360 0
95 1860 0
96 4290 0
97 1710 0
98 3630 0
99 1910 0
100 2840 0
101 4270 0
102 1650 0
103 3410 0
104 3650 0
105 1980 0
106 3660 0
107 2990 0
108 4780 0
109 4230 0
110 4560 0
111 3760 0
112 4040 0
113 2020 0
114 2830 0
115 3060 0
116 4060 0
117 3330 0
118 1540 0
119 2740 0
120 1970 0
121 4940 0
122 1000 0
123 2490 0
124 2240 0
125 2050 0
126 1520 0
127 2500 0
128 2930 0
129 3890 0
130 3830 0
131 1050 0
132 4540 0
133 1520 0
134 1460 0
135 4660 0
136 2090 0
137 4110 0
138 1990 0
139 2000 0
140 2640 0
141 1210 0
142 1080 0
143 2460 0
144 3850 0
145 4630 0
146 1540 0
147 3560 0
148 4490 0
149 2560 0
150 2330 0
151 2340 0
152 4820 0
153 3850 0
154 4970 0
155 2510 0
156 2040 0
157 4640 0
158 4400 0
159 3780 0
160 4540 0
161 2820 0
162 2290 0
163 3530 0
164 1550 0
165 4290 0
166 3470 0
167 3540 0
168 2080 0
169 4270 0
170 2130 0
171 2310 0
172 1950 0
173 3620 0
174 1760 0
175 3970 0
176 1660 0
177 3150 0
178 4700 0
179 4940 0
180 4440 0
181 4710 0
182 3840 0
183 1070 0
184 2580 0
185 2000 0
186 3620 0
187 4660 0
188 3200 0
189 3270 0
190 3690 0
191 2220 0
192 1590 0
193 4180 0
194 1770 0
195 1590 0
196 1690 0
197 3290 0
198 2880 0
199 3070 0
200 4100 0
201 1390 0
PICKUP_SECTION
1 0 0
2 0 0
3 0 0
4 0 0
5 0 0
6 0 0
7 0 0
8 0 0
9 0 0
10 0 0
11 0 0
12 0 0
13 0 0
14 0 0
15 0 0
16 0 0
17 0 0
18 0 0
19 0 0
20 0 0
21 0 0
22 0 0
23 0 0
24 0 0
25 0 0
26 0 0
27 0 0
28 0 0
29 0 0
30 0 0
31 0 0
32 0 0
33 0 0
34 0 0
35 0 0
36 0 0
37 0 0
38 0 0
39 0 0
40 0 0
41 0 0
42 0 0
43 0 0
44 0 0
45 0 0
46 0 0
47 0 0
48 0 0
49 0 0
50 0 0
51 0 0
52 0 0
53 0 0
54 0 0
55 0 0
56 0 0
57 0 0
58 0 0
59 0 0
60 0 0
61 0 0
62 0 0
63 0 0
64 0 0
65 0 0
66 0 0
67 0 0
68 0 0
69 0 0
70 0 0
71 0 0
72 0 0
73 0 0
74 0 0
75 0 0
76 0 0
77 0 0
78 0 0
79 0 0
80 0 0
81 0 0
82 0 0
83 0 0
84 0 0
85 0 0
86 0 0
87 0 0
88 0 0
89 0 0
90 0 0
91 0 0
92 0 0
93 0 0
94 0 0
95 0 0
96 0 0
97 0 0
98 0 0
99 0 0
100 0 0
101 0 0
102 0 0
103 0 0
104 0 0
105 0 0
106 0 0
107 0 0
108 0 0
109 0 0
110 0 0
111 0 0
112 0 0
113 0 0
114 0 0
115 0 0
116 0 0
117 0 0
118 0 0
119 0 0
120 0 0
121 0 0
122 0 0
123 0 0
124 0 0
125 0 0
126 0 0
127 0 0
128 0 0
129 0 0
130 0 0
131 0 0
132 0 0
133 0 0
134 0 0
135 0 0
136 0 0
137 0 0
138 0 0
139 0 0
140 0 0
141 0 0
142 0 0
143 0 0
144 0 0
145 0 0
146 0 0
147 0 0
148 0 0
149 0 0
150 0 0
151 0 0
152 0 0
153 0 0
154 0 0
155 0 0
156 0 0
157 0 0
158 0 0
159 0 0
160 0 0
161 0 0
162 0 0
163 0 0
164 0 0
165 0 0
166 0 0
167 0 0
168 0 0
169 0 0
170 0 0
171 0 0
172 0 0
173 0 0
174 0 0
175 0 0
176 0 0
177 0 0
178 0 0
179 0 0
180 0 0
181 0 0
182 0 0
183 0 0
184 0 0
185 0 0
186 0 0
187 0 0
188 0 0
189 0 0
190 0 0
191 0 0
192 0 0
193 0 0
194 0 0
195 0 0
196 0 0
197 0 0
198 0 0
199 0 0
200 0 0
201 0 0
TIME_WINDOW_SECTION
2  7:00 18:00
3  7:00 18:00
4  7:00 18:00
5  7:00 18:00
6  7:00 18:00
7  7:00 18:00
8  7:00 18:00
9  7:00 18:00
10  7:00 18:00
11  7:00 18:00
12  7:00 18:00
13  7:00 18:00
14  7:00 18:00
15  7:00 18:00
16  7:00 18:00
17  7:00 18:00
18  7:00 18:00
19  7:00 18:00
20  7:00 18:00
21  7:00 18:00
22  7:00 18:00
23  7:00 18:00
24  7:00 18:00
25  7:00 18:00
26  7:00 18:00
27  7:00 18:00
28  7:00 18:00
29  7:00 18:00
30  7:00 18:00
31  7:00 18:00
32  7:00 18:00
33  7:00 18:00
34  7:00 18:00
35  7:00 18:00
36  7:00 18:00
37  7:00 18:00
38  7:00 18:00
39  7:00 18:00
40  7:00 18:00
41  7:00 18:00
42  7:00 18:00
43  7:00 18:00
44  7:00 18:00
45  7:00 18:00
46  7:00 18:00
47  7:00 18:00
48  7:00 18:00
49  7:00 18:00
50  7:00 18:00
51  7:00 18:00
52  7:00 18:00
53  7:00 18:00
54  7:00 18:00
55  7:00 18:00
56  7:00 18:00
57  7:00 18:00
58  7:00 18:00
59  7:00 18:00
60  7:00 18:00
61  7:00 18:00
62  7:00 18:00
63  7:00 18:00
64  7:00 18:00
65  7:00 18:00
66  7:00 18:00
67  7:00 18:00
68  7:00 18:00
69  7:00 18:00
70  7:00 18:00
71  7:00 18:00
72  7:00 18:00
73  7:00 18:00
74  7:00 18:00
75  7:00 18:00
76  7:00 18:00
77  7:00 18:00
78  7:00 18:00
79  7:00 18:00
80  7:00 18:00
81  7:00 18:00
82  7:00 18:00
83  7:00 18:00
84  7:00 18:00
85  7:00 18:00
86  7:00 18:00
87  7:00 18:00
88  7:00 18:00
89  7:00 18:00
90  7:00 18:00
91  7:00 18:00
92  7:00 18:00
93  7:00 18:00
94  7:00 18:00
95  7:00 18:00
96  7:00 18:00
97  7:00 18:00
98  7:00 18:00
99  7:00 18:00
100  7:00 18:00
101  7:00 18:00
102  7:00 18:00
103  7:00 18:00
104  7:00 18:00
105  7:00 18:00
106  7:00 18:00
107  7:00 18:00
108  7:00 18:00
109  7:00 18:00
110  7:00 18:00
111  7:00 18:00
112  7:00 18:00
113  7:00 18:00
114  7:00 18:00
115  7:00 18:00
116  7:00 18:00
117  7:00 18:00
118  7:00 18:00
119  7:00 18:00
120  7:00 18:00
121  7:00 18:00
122  7:00 18:00
123  7:00 18:00
124  7:00 18:00
125  7:00 18:00
126  7:00 18:00
127  7:00 18:00
128  7:00 18:00
129  7:00 18:00
130  7:00 18:00
131  7:00 18:00
132  7:00 18:00
133  7:00 18:00
134  7:00 18:00
135  7:00 18:00
136  7:00 18:00
137  7:00 18:00
138  7:00 18:00
139  7:00 18:00
140  7:00 18:00
141  7:00 18:00
142  7:00 18:00
143  7:00 18:00
144  7:00 18:00
145  7:00 18:00
146  7:00 18:00
147  7:00 18:00
148  7:00 18:00
149  7:00 18:00
150  7:00 18:00
151  7:00 18:00
152  7:00 18:00
153  7:00 18:00
154  7:00 18:00
155  7:00 18:00
156  7:00 18:00
157  7:00 18:00
158  7:00 18:00
159  7:00 18:00
160  7:00 18:00
161  7:00 18:00
162  7:00 18:00
163  7:00 18:00
164  7:00 18:00
165  7:00 18:00
166  7:00 18:00
167  7:00 18:00
168  7:00 18:00
169  7:00 18:00
170  7:00 18:00
171  7:00 18:00
172  7:00 18:00
173  7:00 18:00
174  7:00 18:00
175  7:00 18:00
176  7:00 18:00
177  7:00 18:00
178  7:00 18:00
179  7:00 18:00
180  7:00 18:00
181  7:00 18:00
182  7:00 18:00
183  7:00 18:00
184  7:00 18:00
185  7:00 18:00
186  7:00 18:00
187  7:00 18:00
188  7:00 18:00
189  7:00 18:00
190  7:00 18:00
191  7:00 18:00
192  7:00 18:00
193  7:00 18:00
194  7:00 18:00
195  7:00 18:00
196  7:00 18:00
197  7:00 18:00
198  7:00 18:00
199  7:00 18:00
200  7:00 18:00
201  7:00 18:00
STANDTIME_SECTION
2 50
3 45
4 30
5 38
6 27
7 54
8 38
9 47
10 25
11 20
12 35
13 48
14 44
15 32
16 48
17 33
18 29
19 22
20 53
21 21
22 41
23 22
24 18
25 34
26 17
27 18
28 34
29 39
30 22
31 17
32 22
33 36
34 38
35 42
36 26
37 44
38 19
39 46
40 33
41 19
42 45
43 46
44 27
45 48
46 24
47 54
48 53
49 35
50 37
51 46
52 23
53 38
54 45
55 50
56 27
57 46
58 20
59 53
60 26
61 26
62 52
63 18
64 17
65 34
66 46
67 36
68 27
69 36
70 39
71 43
72 23
73 41
74 41
75 26
76 36
77 42
78 36
79 51
80 36
81 23
82 16
83 19
84 37
85 24
86 45
87 25
88 34
89 30
90 36
91 18
92 20
93 44
94 38
95 23
96 47
97 22
98 41
99 24
100 33
101 47
102 21
103 39
104 41
105 24
106 41
107 34
108 52
109 47
110 50
111 42
112 45
113 25
114 33
115 35
116 45
117 38
118 20
119 32
120 24
121 54
122 15
123 29
124 27
125 25
126 20
127 30
128 34
129 43
130 43
131 15
132 50
133 20
134 19
135 51
136 25
137 46
138 24
139 25
140 31
141 17
142 15
143 29
144 43
145 51
146 20
147 40
148 49
149 30
150 28
151 28
152 53
153 43
154 54
155 30
156 25
157 51
158 49
159 42
160 50
161 33
162 27
163 40
164 20
165 47
166 39
167 40
168 25
169 47
170 26
171 28
172 24
173 41
174 22
175 44
176 21
177 36
178 52
179 54
180 49
181 52
182 43
183 15
184 30
185 25
186 41
187 51
188 37
189 37
190 41
191 27
192 20
193 46
194 22
195 20
196 21
197 37
198 33
199 35
200 46
201 18
DEPOT_SECTION
1
-1
EOF
